F=506;
S=22;
M=5;
A=[1,3,10,70,500];
B=[-0,0.66,5.35,59.35,489.35];
Si=[{0,6,1},
    {0,2},
    {0,14,3},
    {0,14,4},
    {0,6,5},
    {0,6},
    {0,14,4,7},
    {0,14,8},
    {0,2,9},
    {0,2},
    {0,6,1,10},
    {0,6,1,11},
    {0,2,12},
    {0,14,8,13},
    {0,14},
    {0,6,15},
    {0,6,1,16},
    {0,6,17},
    {0,6,15,18},
    {0,2,19},
    {0,6,1,10,20},
    {0,6,1,21},
    {1,6,0},
    {1,6,0,2},
    {1,3},
    {1,3,14,4},
    {1,6,5},
    {1,6},
    {1,3,14,4,7},
    {1,3,14,8},
    {1,10,9},
    {1,10,9},
    {1,10},
    {1,11},
    {1,11,12},
    {1,3,14,8,13},
    {1,3,14},
    {1,6,15},
    {1,16},
    {1,6,17},
    {1,6,15,18},
    {1,6,19},
    {1,10,20},
    {1,21},
    {2,0},
    {2,0,6,1},
    {2,0,14,3},
    {2,0,14,4},
    {2,0,6,5},
    {2,0,6},
    {2,0,14,4,7},
    {2,0,14,8},
    {2,9},
    {2},
    {2,9,10},
    {2,12,11},
    {2,12},
    {2,0,14,8,13},
    {2,0,14},
    {2,9,15},
    {2,19,16},
    {2,0,6,17},
    {2,9,15,18},
    {2,19},
    {2,9,10,20},
    {2,9,15,21},
    {3,14,0},
    {3,1},
    {3,14,0,2},
    {3,14,4},
    {3,1,6,5},
    {3,1,6},
    {3,14,4,7},
    {3,14,8},
    {3,14,9},
    {3,14,9},
    {3,1,10},
    {3,1,11},
    {3,1,11,12},
    {3,14,8,13},
    {3,14},
    {3,1,6,15},
    {3,1,16},
    {3,1,6,17},
    {3,14,8,13,18},
    {3,1,6,19},
    {3,1,10,20},
    {3,1,21},
    {4,14,0},
    {4,14,3,1},
    {4,14,0,2},
    {4,14,3},
    {4,14,0,6,5},
    {4,14,0,6},
    {4,7},
    {4,7,8},
    {4,14,9},
    {4,14,9},
    {4,14,9,10},
    {4,14,3,1,11},
    {4,14,0,2,12},
    {4,7,8,13},
    {4,14},
    {4,14,9,15},
    {4,14,3,1,16},
    {4,14,0,6,17},
    {4,7,8,13,18},
    {4,14,0,2,19},
    {4,14,9,10,20},
    {4,14,3,1,21},
    {5,6,0},
    {5,6,1},
    {5,6,0,2},
    {5,6,1,3},
    {5,6,0,14,4},
    {5,6},
    {5,6,0,14,4,7},
    {5,6,0,14,8},
    {5,6,15,9},
    {5,6,0,2},
    {5,6,1,10},
    {5,17,11},
    {5,17,11,12},
    {5,6,15,18,13},
    {5,6,0,14},
    {5,6,15},
    {5,6,1,16},
    {5,17},
    {5,6,15,18},
    {5,6,19},
    {5,6,1,10,20},
    {5,6,1,21},
    {6,0},
    {6,1},
    {6,0,2},
    {6,1,3},
    {6,0,14,4},
    {6,5},
    {6,0,14,4,7},
    {6,0,14,8},
    {6,15,9},
    {6,0,2},
    {6,1,10},
    {6,1,11},
    {6,0,2,12},
    {6,15,18,13},
    {6,0,14},
    {6,15},
    {6,1,16},
    {6,17},
    {6,15,18},
    {6,19},
    {6,1,10,20},
    {6,1,21},
    {7,4,14,0},
    {7,4,14,3,1},
    {7,4,14,0,2},
    {7,4,14,3},
    {7,4},
    {7,4,14,0,6,5},
    {7,4,14,0,6},
    {7,8},
    {7,4,14,9},
    {7,4,14,9},
    {7,4,14,9,10},
    {7,4,14,3,1,11},
    {7,4,14,0,2,12},
    {7,8,13},
    {7,4,14},
    {7,4,14,9,15},
    {7,4,14,3,1,16},
    {7,4,14,0,6,17},
    {7,8,13,18},
    {7,4,14,0,2,19},
    {7,8,13,18,20},
    {7,4,14,3,1,21},
    {8,14,0},
    {8,14,3,1},
    {8,14,0,2},
    {8,14,3},
    {8,7,4},
    {8,14,0,6,5},
    {8,14,0,6},
    {8,7},
    {8,14,9},
    {8,14,9},
    {8,14,9,10},
    {8,14,3,1,11},
    {8,14,0,2,12},
    {8,13},
    {8,14},
    {8,14,9,15},
    {8,14,3,1,16},
    {8,14,0,6,17},
    {8,13,18},
    {8,14,0,2,19},
    {8,13,18,20},
    {8,14,3,1,21},
    {9,2,0},
    {9,10,1},
    {9,2},
    {9,14,3},
    {9,14,4},
    {9,15,6,5},
    {9,15,6},
    {9,14,4,7},
    {9,14,8},
    {9},
    {9,10},
    {9,15,11},
    {9,2,12},
    {9,14,8,13},
    {9,14},
    {9,15},
    {9,10,1,16},
    {9,15,6,17},
    {9,15,18},
    {9,2,19},
    {9,10,20},
    {9,15,21},
    {2,0},
    {9,10,1},
    {2},
    {9,14,3},
    {9,14,4},
    {2,0,6,5},
    {2,0,6},
    {9,14,4,7},
    {9,14,8},
    {9},
    {9,10},
    {2,12,11},
    {2,12},
    {9,14,8,13},
    {9,14},
    {9,15},
    {2,19,16},
    {2,0,6,17},
    {9,15,18},
    {2,19},
    {9,10,20},
    {9,15,21},
    {10,1,6,0},
    {10,1},
    {10,9,2},
    {10,1,3},
    {10,9,14,4},
    {10,1,6,5},
    {10,1,6},
    {10,9,14,4,7},
    {10,9,14,8},
    {10,9},
    {10,9},
    {10,1,11},
    {10,9,2,12},
    {10,20,18,13},
    {10,9,14},
    {10,9,15},
    {10,1,16},
    {10,1,6,17},
    {10,20,18},
    {10,1,6,19},
    {10,20},
    {10,1,21},
    {11,1,6,0},
    {11,1},
    {11,12,2},
    {11,1,3},
    {11,1,3,14,4},
    {11,17,5},
    {11,1,6},
    {11,1,3,14,4,7},
    {11,1,3,14,8},
    {11,15,9},
    {11,12,2},
    {11,1,10},
    {11,12},
    {11,15,18,13},
    {11,1,3,14},
    {11,15},
    {11,1,16},
    {11,17},
    {11,15,18},
    {11,1,6,19},
    {11,1,10,20},
    {11,1,21},
    {12,2,0},
    {12,11,1},
    {12,2},
    {12,11,1,3},
    {12,2,0,14,4},
    {12,11,17,5},
    {12,2,0,6},
    {12,2,0,14,4,7},
    {12,2,0,14,8},
    {12,2,9},
    {12,2},
    {12,2,9,10},
    {12,11},
    {12,11,15,18,13},
    {12,2,0,14},
    {12,11,15},
    {12,11,1,16},
    {12,11,17},
    {12,11,15,18},
    {12,2,19},
    {12,2,9,10,20},
    {12,11,1,21},
    {13,8,14,0},
    {13,8,14,3,1},
    {13,8,14,0,2},
    {13,8,14,3},
    {13,8,7,4},
    {13,18,15,6,5},
    {13,18,15,6},
    {13,8,7},
    {13,8},
    {13,8,14,9},
    {13,8,14,9},
    {13,18,20,10},
    {13,18,15,11},
    {13,18,15,11,12},
    {13,8,14},
    {13,18,15},
    {13,8,14,3,1,16},
    {13,18,15,6,17},
    {13,18},
    {13,18,15,6,19},
    {13,18,20},
    {13,18,15,21},
    {14,0},
    {14,3,1},
    {14,0,2},
    {14,3},
    {14,4},
    {14,0,6,5},
    {14,0,6},
    {14,4,7},
    {14,8},
    {14,9},
    {14,9},
    {14,9,10},
    {14,3,1,11},
    {14,0,2,12},
    {14,8,13},
    {14,9,15},
    {14,3,1,16},
    {14,0,6,17},
    {14,8,13,18},
    {14,0,2,19},
    {14,9,10,20},
    {14,3,1,21},
    {15,6,0},
    {15,6,1},
    {15,9,2},
    {15,6,1,3},
    {15,9,14,4},
    {15,6,5},
    {15,6},
    {15,9,14,4,7},
    {15,9,14,8},
    {15,9},
    {15,9},
    {15,9,10},
    {15,11},
    {15,11,12},
    {15,18,13},
    {15,9,14},
    {15,6,1,16},
    {15,6,17},
    {15,18},
    {15,6,19},
    {15,18,20},
    {15,21},
    {16,1,6,0},
    {16,1},
    {16,19,2},
    {16,1,3},
    {16,1,3,14,4},
    {16,1,6,5},
    {16,1,6},
    {16,1,3,14,4,7},
    {16,1,3,14,8},
    {16,1,10,9},
    {16,19,2},
    {16,1,10},
    {16,1,11},
    {16,1,11,12},
    {16,1,3,14,8,13},
    {16,1,3,14},
    {16,1,6,15},
    {16,1,6,17},
    {16,1,6,15,18},
    {16,19},
    {16,1,10,20},
    {16,1,21},
    {17,6,0},
    {17,6,1},
    {17,6,0,2},
    {17,6,1,3},
    {17,6,0,14,4},
    {17,5},
    {17,6},
    {17,6,0,14,4,7},
    {17,6,0,14,8},
    {17,6,15,9},
    {17,6,0,2},
    {17,6,1,10},
    {17,11},
    {17,11,12},
    {17,6,15,18,13},
    {17,6,0,14},
    {17,6,15},
    {17,6,1,16},
    {17,6,15,18},
    {17,6,19},
    {17,6,1,10,20},
    {17,6,1,21},
    {18,15,6,0},
    {18,15,6,1},
    {18,15,9,2},
    {18,13,8,14,3},
    {18,13,8,7,4},
    {18,15,6,5},
    {18,15,6},
    {18,13,8,7},
    {18,13,8},
    {18,15,9},
    {18,15,9},
    {18,20,10},
    {18,15,11},
    {18,15,11,12},
    {18,13},
    {18,13,8,14},
    {18,15},
    {18,15,6,1,16},
    {18,15,6,17},
    {18,15,6,19},
    {18,20},
    {18,15,21},
    {19,2,0},
    {19,6,1},
    {19,2},
    {19,6,1,3},
    {19,2,0,14,4},
    {19,6,5},
    {19,6},
    {19,2,0,14,4,7},
    {19,2,0,14,8},
    {19,2,9},
    {19,2},
    {19,6,1,10},
    {19,6,1,11},
    {19,2,12},
    {19,6,15,18,13},
    {19,2,0,14},
    {19,6,15},
    {19,16},
    {19,6,17},
    {19,6,15,18},
    {19,6,1,10,20},
    {19,6,1,21},
    {20,10,1,6,0},
    {20,10,1},
    {20,10,9,2},
    {20,10,1,3},
    {20,10,9,14,4},
    {20,10,1,6,5},
    {20,10,1,6},
    {20,18,13,8,7},
    {20,18,13,8},
    {20,10,9},
    {20,10,9},
    {20,10},
    {20,10,1,11},
    {20,10,9,2,12},
    {20,18,13},
    {20,10,9,14},
    {20,18,15},
    {20,10,1,16},
    {20,10,1,6,17},
    {20,18},
    {20,10,1,6,19},
    {20,10,1,21},
    {21,1,6,0},
    {21,1},
    {21,15,9,2},
    {21,1,3},
    {21,1,3,14,4},
    {21,1,6,5},
    {21,1,6},
    {21,1,3,14,4,7},
    {21,1,3,14,8},
    {21,15,9},
    {21,15,9},
    {21,1,10},
    {21,1,11},
    {21,1,11,12},
    {21,15,18,13},
    {21,1,3,14},
    {21,15},
    {21,1,16},
    {21,1,6,17},
    {21,15,18},
    {21,1,6,19},
    {21,1,10,20}];
weight=[217,227,217,250,298,258,211,223,256,258,261,291,279,227,275,242,228,200,260,230,272,268,297,294,298,274,280,227,285,245,215,220,230,223,292,240,212,220,235,248,206,221,204,270,242,286,242,214,213,298,276,279,224,202,279,273,230,253,203,285,257,221,222,273,281,221,222,296,202,234,259,258,246,226,288,224,284,291,268,285,262,257,217,265,288,278,204,216,222,239,231,237,238,248,262,233,227,294,224,218,239,223,282,237,202,281,293,268,222,232,215,251,272,255,283,209,211,258,236,270,287,201,210,219,253,263,292,284,281,256,225,288,234,223,280,218,222,270,204,232,287,231,234,284,261,254,286,240,235,287,244,268,258,212,212,291,216,259,269,265,252,210,292,248,213,251,239,284,240,246,206,227,295,220,248,236,232,268,288,266,208,291,287,237,231,291,243,224,276,250,250,201,254,215,243,290,232,210,261,203,219,291,216,254,247,287,294,205,243,243,206,271,290,278,259,199,212,262,262,264,247,212,254,207,217,221,280,219,258,207,204,238,267,292,285,231,212,252,269,253,283,261,250,295,248,293,202,256,249,251,279,253,272,254,271,255,281,243,289,205,268,255,242,283,230,250,291,209,222,285,271,227,247,276,240,272,224,275,254,224,225,287,239,291,235,234,285,212,206,227,255,286,250,212,250,295,291,288,284,219,287,244,295,285,257,242,267,213,231,285,262,201,217,233,282,274,223,230,274,259,281,213,258,266,240,206,220,255,273,297,240,241,271,220,261,204,274,215,279,282,226,266,210,286,218,296,263,215,230,271,205,229,244,293,222,251,286,291,241,294,266,282,226,287,232,222,270,290,254,294,202,223,253,259,274,300,284,234,214,211,252,239,234,215,248,292,242,221,282,284,248,272,259,241,213,264,246,269,258,221,210,214,211,253,205,290,251,254,222,282,222,266,268,254,200,282,242,288,221,265,293,283,264,210,287,279,207,219,261,201,257,216,205,249,287,270,255,270,278,290,288,242,256,245,252,247,268,210,219,239,233,226,220,229,275,276,255,266,239,259,215,236,233,279,224,286,281,289,223,222,221,244,284,249,215,208,215,290,244,268,274,274,224,224,273,275,245,236,248,279,279,216,215,291,267,272,208,273,284,221,202,286,272,218,273,271];
N=[3300,3300,3300,3300,3300,3300,3300,3300,3300,3300,3300,3300,3300,3300,3300,3300,3300,3300,3300,3300,3300,3300];
